NAME          COPTPROB
OBJSENSE
  MIN
ROWS
 N  __OBJ___
 L  C2      
 L  C4      
 L  C6      
 L  C9      
 L  C10     
 L  C12     
 L  C14     
 L  C16     
 L  C17     
 L  C20     
 L  C25     
 L  C26     
 L  C27     
 L  C29     
 L  C30     
 L  C31     
 L  C32     
 L  C33     
 L  C34     
 L  C35     
 L  C36     
 L  C37     
 L  C39     
 L  C43     
 L  C44     
 L  C49     
 L  C51     
 L  C52     
 L  C53     
 L  C54     
 L  C55     
 L  C56     
 L  C57     
 L  C58     
 L  C59     
 L  C60     
 L  C61     
 L  C62     
 L  C63     
 L  C64     
 L  C65     
 L  C66     
 L  C72     
 L  C73     
 L  C74     
 L  C75     
 L  C77     
 L  C78     
 L  C79     
 L  C80     
 L  C81     
 L  C83     
 L  C84     
 L  C85     
 L  C86     
 L  C88     
 L  C92     
 L  C94     
 L  C95     
 L  C96     
 L  C97     
 L  C99     
 L  C103    
 L  C104    
 L  C105    
 L  C106    
 L  C108    
 L  C112    
 L  C113    
 L  C114    
 L  C115    
 L  C116    
 L  C118    
 L  C119    
 L  C123    
 L  C124    
 L  C128    
 L  C131    
 L  C134    
 L  C137    
 L  C138    
 L  C139    
 L  C140    
 L  C141    
 L  C143    
 L  C146    
 L  C148    
 L  C150    
 L  C151    
 L  C153    
 L  C155    
 L  C159    
 L  C160    
 L  C161    
 L  C162    
 L  C164    
 L  C165    
 L  C168    
 L  C169    
 L  C170    
 L  C171    
 L  C175    
 L  C176    
 L  C177    
 L  C178    
 L  C180    
 L  C181    
 L  C182    
 L  C183    
 L  C185    
 L  C186    
 L  C188    
 L  C191    
 L  C192    
 L  C193    
 L  C194    
 L  C195    
 L  C197    
 L  C199    
 L  C200    
 L  C202    
 L  C203    
 L  C204    
 L  C210    
 L  C213    
 L  C215    
 L  C217    
 L  C218    
 L  C219    
 L  C224    
 L  C227    
 L  C228    
 L  C229    
 L  C230    
 L  C233    
 L  C234    
 L  C236    
 L  C237    
 L  C238    
 L  C239    
 L  C240    
 L  C243    
 L  C248    
 L  C249    
 L  C250    
 L  C252    
 L  C254    
 L  C255    
 L  C256    
 L  C257    
 L  C259    
 L  C260    
 L  C262    
 L  C265    
 L  C266    
 L  C267    
 L  C269    
 L  C270    
 L  C271    
 L  C272    
 L  C273    
 L  C275    
 L  C277    
 L  C278    
 L  C280    
 L  C285    
 L  C286    
 L  C287    
 L  C288    
 L  C289    
 L  C291    
 L  C292    
 L  C293    
 L  C294    
 L  C295    
 L  C296    
 L  C297    
 L  C298    
 L  C299    
 L  C301    
 L  C309    
 L  C310    
 L  C311    
 L  C312    
 L  C313    
 L  C317    
 L  C318    
 L  C319    
 L  C320    
 L  C324    
 L  C325    
 L  C326    
 L  C331    
 L  C332    
 L  C333    
 L  C335    
 L  C337    
 L  C338    
 L  C339    
 L  C340    
 L  C341    
 L  C342    
 L  C343    
 L  C344    
 L  C349    
 L  C351    
 L  C354    
 L  C357    
 L  C358    
 L  C360    
 L  C363    
 L  C364    
 L  C365    
 L  C366    
 L  C369    
 L  C371    
 L  C372    
 L  C373    
 L  C375    
 L  C379    
 L  C380    
 L  C385    
 L  C387    
 L  C389    
 L  C390    
 L  C391    
 L  C392    
 L  C393    
 L  C395    
COLUMNS
    MARKER    'MARKER'                 'INTORG'
    x2        __OBJ___  342
    x2        C57       -1
    x2        C106      -1
    x2        C178      -1
    x2        C254      -1
    x2        C292      -1
    x2        C354      -1
    x3        __OBJ___  7
    x3        C195      -1
    x3        C219      -1
    x5        __OBJ___  803
    x5        C17       -1
    x5        C169      -1
    x5        C192      -1
    x5        C287      -1
    x5        C385      -1
    x7        __OBJ___  876
    x7        C32       -1
    x7        C86       -1
    x7        C295      -1
    x8        __OBJ___  417
    x8        C63       -1
    x8        C81       -1
    x8        C229      -1
    x9        __OBJ___  506
    x9        C35       -1
    x9        C250      -1
    x9        C275      -1
    x12       __OBJ___  155
    x12       C54       -1
    x12       C181      -1
    x12       C233      -1
    x12       C335      -1
    x15       __OBJ___  763
    x15       C36       -1
    x15       C52       -1
    x15       C108      -1
    x16       __OBJ___  430
    x16       C213      -1
    x16       C277      -1
    x16       C371      -1
    x16       C389      -1
    x17       __OBJ___  683
    x17       C16       -1
    x17       C134      -1
    x17       C138      -1
    x17       C262      -1
    x17       C366      -1
    x20       __OBJ___  721
    x20       C193      -1
    x20       C288      -1
    x22       __OBJ___  663
    x22       C119      -1
    x22       C162      -1
    x22       C168      -1
    x22       C259      -1
    x23       __OBJ___  94
    x23       C30       -1
    x23       C58       -1
    x23       C143      -1
    x23       C243      -1
    x24       __OBJ___  854
    x24       C14       -1
    x24       C103      -1
    x24       C256      -1
    x24       C312      -1
    x25       __OBJ___  234
    x25       C78       -1
    x25       C88       -1
    x25       C139      -1
    x25       C165      -1
    x26       __OBJ___  421
    x26       C164      -1
    x26       C228      -1
    x26       C364      -1
    x26       C379      -1
    x30       __OBJ___  781
    x30       C39       -1
    x30       C62       -1
    x30       C266      -1
    x30       C393      -1
    x32       __OBJ___  527
    x32       C37       -1
    x32       C114      -1
    x32       C137      -1
    x32       C291      -1
    x32       C325      -1
    x34       __OBJ___  394
    x34       C27       -1
    x34       C176      -1
    x34       C272      -1
    x35       __OBJ___  193
    x35       C80       -1
    x35       C170      -1
    x35       C265      -1
    x35       C363      -1
    x36       __OBJ___  220
    x36       C182      -1
    x36       C375      -1
    x38       __OBJ___  426
    x38       C131      -1
    x38       C194      -1
    x38       C278      -1
    x38       C326      -1
    x41       __OBJ___  353
    x41       C33       -1
    x41       C105      -1
    x41       C248      -1
    x41       C351      -1
    x45       __OBJ___  301
    x45       C4        -1
    x45       C96       -1
    x45       C240      -1
    x45       C395      -1
    x46       __OBJ___  219
    x46       C56       -1
    x46       C79       -1
    x46       C159      -1
    x46       C286      -1
    x48       __OBJ___  724
    x48       C99       -1
    x48       C128      -1
    x48       C252      -1
    x48       C341      -1
    x49       __OBJ___  72
    x49       C153      -1
    x49       C180      -1
    x49       C337      -1
    x52       __OBJ___  7
    x52       C188      -1
    x52       C249      -1
    x52       C257      -1
    x52       C309      -1
    x52       C392      -1
    x53       __OBJ___  644
    x53       C6        -1
    x53       C97       -1
    x53       C177      -1
    x53       C260      -1
    x55       __OBJ___  304
    x55       C34       -1
    x55       C65       -1
    x55       C112      -1
    x55       C115      -1
    x55       C141      -1
    x55       C148      -1
    x56       __OBJ___  68
    x56       C72       -1
    x56       C94       -1
    x56       C124      -1
    x57       __OBJ___  280
    x57       C44       -1
    x57       C118      -1
    x57       C293      -1
    x57       C324      -1
    x58       __OBJ___  328
    x58       C113      -1
    x58       C297      -1
    x59       __OBJ___  931
    x59       C73       -1
    x59       C116      -1
    x59       C280      -1
    x59       C296      -1
    x59       C338      -1
    x60       __OBJ___  786
    x60       C197      -1
    x60       C204      -1
    x60       C239      -1
    x60       C255      -1
    x60       C289      -1
    x60       C369      -1
    x62       __OBJ___  204
    x62       C343      -1
    x62       C358      -1
    x62       C390      -1
    x63       __OBJ___  127
    x63       C10       -1
    x63       C217      -1
    x63       C236      -1
    x63       C333      -1
    x64       __OBJ___  303
    x64       C60       -1
    x64       C74       -1
    x64       C160      -1
    x64       C185      -1
    x66       __OBJ___  412
    x66       C84       -1
    x66       C150      -1
    x66       C234      -1
    x66       C391      -1
    x69       __OBJ___  64
    x69       C61       -1
    x70       __OBJ___  871
    x70       C9        -1
    x70       C43       -1
    x77       __OBJ___  700
    x77       C29       -1
    x77       C59       -1
    x77       C85       -1
    x77       C186      -1
    x77       C215      -1
    x78       __OBJ___  71
    x78       C83       -1
    x78       C237      -1
    x78       C299      -1
    x81       __OBJ___  703
    x81       C51       -1
    x81       C66       -1
    x81       C75       -1
    x81       C77       -1
    x81       C161      -1
    x81       C267      -1
    x83       __OBJ___  116
    x83       C171      -1
    x83       C175      -1
    x83       C271      -1
    x83       C311      -1
    x85       __OBJ___  350
    x85       C155      -1
    x85       C310      -1
    x85       C380      -1
    x87       __OBJ___  103
    x87       C49       -1
    x87       C227      -1
    x88       __OBJ___  419
    x88       C2        -1
    x88       C151      -1
    x88       C298      -1
    x91       __OBJ___  418
    x91       C64       -1
    x91       C183      -1
    x91       C387      -1
    x93       __OBJ___  948
    x93       C92       -1
    x93       C95       -1
    x93       C238      -1
    x93       C270      -1
    x93       C372      -1
    x93       C373      -1
    x94       __OBJ___  198
    x94       C140      -1
    x94       C200      -1
    x94       C202      -1
    x94       C210      -1
    x95       __OBJ___  216
    x95       C53       -1
    x95       C104      -1
    x95       C230      -1
    x95       C342      -1
    x96       __OBJ___  76
    x96       C20       -1
    x96       C55       -1
    x96       C317      -1
    x96       C318      -1
    x96       C332      -1
    x98       __OBJ___  736
    x98       C199      -1
    x98       C203      -1
    x98       C273      -1
    x98       C319      -1
    x98       C340      -1
    x103      __OBJ___  178
    x103      C213      -1
    x103      C360      -1
    x104      __OBJ___  435
    x104      C35       -1
    x104      C51       -1
    x104      C64       -1
    x104      C97       -1
    x104      C192      -1
    x104      C243      -1
    x104      C372      -1
    x106      __OBJ___  454
    x106      C29       -1
    x106      C239      -1
    x106      C380      -1
    x107      __OBJ___  137
    x107      C4        -1
    x107      C14       -1
    x107      C86       -1
    x108      __OBJ___  730
    x108      C270      -1
    x110      __OBJ___  495
    x110      C66       -1
    x110      C342      -1
    x110      C366      -1
    x114      __OBJ___  405
    x114      C44       -1
    x114      C191      -1
    x114      C194      -1
    x114      C354      -1
    x116      __OBJ___  456
    x116      C37       -1
    x116      C97       -1
    x116      C252      -1
    x116      C320      -1
    x117      __OBJ___  350
    x117      C25       -1
    x117      C56       -1
    x117      C60       -1
    x117      C124      -1
    x119      __OBJ___  18
    x119      C58       -1
    x119      C266      -1
    x121      __OBJ___  428
    x121      C181      -1
    x121      C265      -1
    x121      C267      -1
    x121      C296      -1
    x121      C338      -1
    x122      __OBJ___  571
    x122      C123      -1
    x122      C332      -1
    x125      __OBJ___  800
    x125      C160      -1
    x125      C199      -1
    x125      C256      -1
    x126      __OBJ___  241
    x126      C128      -1
    x126      C169      -1
    x126      C229      -1
    x126      C236      -1
    x127      __OBJ___  278
    x127      C37       -1
    x127      C128      -1
    x127      C309      -1
    x127      C317      -1
    x132      __OBJ___  201
    x132      C61       -1
    x132      C80       -1
    x132      C337      -1
    x132      C365      -1
    x134      __OBJ___  660
    x134      C72       -1
    x134      C193      -1
    x134      C218      -1
    x134      C273      -1
    x135      __OBJ___  342
    x135      C218      -1
    x135      C266      -1
    x135      C319      -1
    x135      C351      -1
    x137      __OBJ___  62
    x137      C83       -1
    x137      C103      -1
    x137      C257      -1
    x137      C342      -1
    x138      __OBJ___  117
    x138      C197      -1
    x138      C325      -1
    x138      C369      -1
    x140      __OBJ___  582
    x140      C44       -1
    x140      C217      -1
    x140      C320      -1
    x140      C372      -1
    x142      __OBJ___  132
    x142      C83       -1
    x142      C203      -1
    x142      C360      -1
    x143      __OBJ___  663
    x143      C83       -1
    x143      C160      -1
    x143      C237      -1
    x143      C357      -1
    x144      __OBJ___  407
    x144      C20       -1
    x144      C115      -1
    x144      C371      -1
    x145      __OBJ___  206
    x145      C60       -1
    x145      C114      -1
    x145      C210      -1
    x145      C278      -1
    x145      C289      -1
    x146      __OBJ___  43
    x146      C219      -1
    x146      C280      -1
    x147      __OBJ___  195
    x147      C27       -1
    x147      C183      -1
    x147      C326      -1
    x147      C360      -1
    x147      C392      -1
    x148      __OBJ___  631
    x148      C53       -1
    x148      C296      -1
    x148      C373      -1
    x149      __OBJ___  536
    x149      C25       -1
    x149      C155      -1
    x149      C164      -1
    x149      C191      -1
    x149      C257      -1
    x149      C349      -1
    x151      __OBJ___  213
    x151      C53       -1
    x151      C255      -1
    x151      C309      -1
    x151      C369      -1
    x152      __OBJ___  138
    x152      C63       -1
    x152      C137      -1
    x152      C213      -1
    x154      __OBJ___  50
    x154      C195      -1
    x154      C341      -1
    x157      __OBJ___  19
    x157      C54       -1
    x157      C92       -1
    x160      __OBJ___  749
    x160      C31       -1
    x160      C202      -1
    x160      C295      -1
    x163      __OBJ___  158
    x163      C176      -1
    x163      C379      -1
    x163      C385      -1
    x165      __OBJ___  255
    x165      C177      -1
    x165      C375      -1
    x166      __OBJ___  802
    x166      C65       -1
    x166      C203      -1
    x166      C371      -1
    x167      __OBJ___  73
    x167      C37       -1
    x167      C80       -1
    x167      C192      -1
    x168      __OBJ___  919
    x168      C30       -1
    x168      C146      -1
    x168      C233      -1
    x168      C256      -1
    x168      C313      -1
    x172      __OBJ___  671
    x172      C96       -1
    x172      C104      -1
    x172      C197      -1
    x172      C275      -1
    x173      __OBJ___  301
    x173      C52       -1
    x173      C168      -1
    x173      C254      -1
    x173      C255      -1
    x173      C294      -1
    x175      __OBJ___  692
    x175      C92       -1
    x175      C94       -1
    x175      C335      -1
    x175      C366      -1
    x176      __OBJ___  479
    x176      C124      -1
    x176      C138      -1
    x176      C293      -1
    x177      __OBJ___  225
    x177      C12       -1
    x177      C63       -1
    x177      C165      -1
    x177      C191      -1
    x183      __OBJ___  956
    x183      C59       -1
    x183      C312      -1
    x184      __OBJ___  539
    x184      C99       -1
    x184      C146      -1
    x184      C351      -1
    x185      __OBJ___  727
    x185      C62       -1
    x185      C326      -1
    x185      C357      -1
    x187      __OBJ___  637
    x187      C20       -1
    x187      C43       -1
    x187      C339      -1
    x188      __OBJ___  347
    x188      C146      -1
    x188      C228      -1
    x190      __OBJ___  108
    x190      C59       -1
    x190      C61       -1
    x190      C250      -1
    x190      C363      -1
    x199      __OBJ___  444
    x199      C175      -1
    x199      C296      -1
    x200      __OBJ___  799
    x200      C116      -1
    x200      C217      -1
    x200      C259      -1
    x204      __OBJ___  178
    x204      C148      -1
    x204      C299      -1
    x206      __OBJ___  716
    x206      C288      -1
    x206      C389      -1
    x207      __OBJ___  38
    x207      C94       -1
    x207      C185      -1
    x207      C269      -1
    x207      C380      -1
    x207      C385      -1
    x208      __OBJ___  665
    x208      C161      -1
    x208      C191      -1
    x208      C343      -1
    x209      __OBJ___  230
    x209      C36       -1
    x209      C193      -1
    x209      C254      -1
    x209      C339      -1
    x220      __OBJ___  115
    x220      C143      -1
    x220      C153      -1
    x220      C168      -1
    x223      __OBJ___  983
    x223      C10       -1
    x223      C51       -1
    x223      C243      -1
    x223      C365      -1
    x223      C387      -1
    x224      __OBJ___  571
    x224      C31       -1
    x224      C99       -1
    x224      C165      -1
    x224      C278      -1
    x225      __OBJ___  304
    x225      C139      -1
    x225      C298      -1
    x227      __OBJ___  82
    x227      C106      -1
    x227      C344      -1
    x228      __OBJ___  162
    x228      C128      -1
    x228      C227      -1
    x228      C260      -1
    x232      __OBJ___  111
    x232      C95       -1
    x232      C105      -1
    x232      C249      -1
    x233      __OBJ___  176
    x233      C103      -1
    x233      C150      -1
    x233      C237      -1
    x233      C358      -1
    x237      __OBJ___  126
    x237      C269      -1
    x237      C338      -1
    x237      C369      -1
    x238      __OBJ___  346
    x238      C262      -1
    x238      C287      -1
    x239      __OBJ___  417
    x239      C74       -1
    x239      C80       -1
    x239      C139      -1
    x239      C239      -1
    x242      __OBJ___  326
    x242      C2        -1
    x242      C215      -1
    x245      __OBJ___  592
    x245      C240      -1
    x245      C339      -1
    x245      C344      -1
    x245      C363      -1
    x246      __OBJ___  443
    x246      C32       -1
    x246      C83       -1
    x246      C96       -1
    x246      C234      -1
    x247      __OBJ___  416
    x247      C162      -1
    x247      C294      -1
    x247      C297      -1
    x249      __OBJ___  152
    x249      C4        -1
    x249      C57       -1
    x249      C75       -1
    x249      C86       -1
    x249      C233      -1
    x249      C250      -1
    x249      C324      -1
    x250      __OBJ___  13
    x250      C227      -1
    x250      C278      -1
    x251      __OBJ___  39
    x251      C10       -1
    x251      C66       -1
    x256      __OBJ___  102
    x256      C238      -1
    x256      C311      -1
    x256      C391      -1
    x257      __OBJ___  79
    x257      C12       -1
    x257      C165      -1
    x257      C342      -1
    x258      __OBJ___  761
    x258      C60       -1
    x258      C97       -1
    x258      C155      -1
    x258      C171      -1
    x258      C360      -1
    x261      __OBJ___  1
    x261      C250      -1
    x262      __OBJ___  215
    x262      C113      -1
    x262      C293      -1
    x262      C301      -1
    x263      __OBJ___  80
    x263      C177      -1
    x263      C280      -1
    x265      __OBJ___  313
    x265      C106      -1
    x265      C112      -1
    x265      C227      -1
    x265      C238      -1
    x265      C259      -1
    x265      C341      -1
    x267      __OBJ___  360
    x267      C240      -1
    x267      C254      -1
    x267      C299      -1
    x270      __OBJ___  739
    x270      C26       -1
    x270      C88       -1
    x270      C178      -1
    x270      C310      -1
    x270      C333      -1
    x271      __OBJ___  440
    x271      C104      -1
    x271      C204      -1
    x271      C341      -1
    x273      __OBJ___  307
    x273      C44       -1
    x273      C224      -1
    x273      C332      -1
    x275      __OBJ___  587
    x275      C234      -1
    x275      C372      -1
    x278      __OBJ___  68
    x278      C188      -1
    x278      C233      -1
    x282      __OBJ___  80
    x282      C16       -1
    x282      C318      -1
    x283      __OBJ___  69
    x283      C324      -1
    x283      C358      -1
    x284      __OBJ___  711
    x284      C61       -1
    x284      C79       -1
    x284      C219      -1
    x284      C273      -1
    x284      C291      -1
    x284      C372      -1
    x286      __OBJ___  716
    x286      C33       -1
    x286      C164      -1
    x286      C199      -1
    x286      C344      -1
    x286      C364      -1
    x289      __OBJ___  60
    x289      C12       -1
    x289      C115      -1
    x289      C180      -1
    x289      C294      -1
    x291      __OBJ___  613
    x291      C32       -1
    x291      C229      -1
    x292      __OBJ___  165
    x292      C14       -1
    x292      C141      -1
    x292      C351      -1
    x293      __OBJ___  391
    x293      C269      -1
    x293      C271      -1
    x293      C292      -1
    x293      C354      -1
    x299      __OBJ___  57
    x299      C331      -1
    x299      C332      -1
    x301      __OBJ___  89
    x301      C202      -1
    x303      __OBJ___  204
    x303      C230      -1
    x303      C285      -1
    x303      C369      -1
    x304      __OBJ___  432
    x304      C17       -1
    x304      C97       -1
    x304      C161      -1
    x304      C262      -1
    x306      __OBJ___  30
    x306      C66       -1
    x306      C73       -1
    x306      C96       -1
    x308      __OBJ___  381
    x308      C55       -1
    x308      C78       -1
    x308      C224      -1
    x308      C364      -1
    x309      __OBJ___  45
    x309      C26       -1
    x309      C62       -1
    x309      C217      -1
    x309      C224      -1
    x309      C252      -1
    x309      C255      -1
    x309      C272      -1
    x310      __OBJ___  983
    x310      C37       -1
    x310      C140      -1
    x310      C265      -1
    x310      C270      -1
    x310      C275      -1
    x313      __OBJ___  232
    x313      C118      -1
    x313      C230      -1
    x313      C277      -1
    x318      __OBJ___  511
    x318      C55       -1
    x318      C366      -1
    x320      __OBJ___  190
    x320      C204      -1
    x321      __OBJ___  220
    x321      C64       -1
    x321      C319      -1
    x322      __OBJ___  45
    x322      C119      -1
    x322      C191      -1
    x322      C280      -1
    x323      __OBJ___  423
    x323      C72       -1
    x323      C108      -1
    x323      C337      -1
    x323      C339      -1
    x325      __OBJ___  384
    x325      C255      -1
    x325      C267      -1
    x326      __OBJ___  590
    x326      C9        -1
    x326      C34       -1
    x326      C230      -1
    x326      C342      -1
    x326      C365      -1
    x329      __OBJ___  326
    x329      C275      -1
    x330      __OBJ___  37
    x330      C73       -1
    x330      C85       -1
    x330      C237      -1
    x332      __OBJ___  16
    x332      C31       -1
    x332      C159      -1
    x332      C363      -1
    x332      C373      -1
    x334      __OBJ___  383
    x334      C9        -1
    x334      C140      -1
    x334      C143      -1
    x335      __OBJ___  343
    x335      C131      -1
    x335      C194      -1
    x335      C243      -1
    x335      C267      -1
    x335      C375      -1
    x336      __OBJ___  429
    x336      C234      -1
    x336      C285      -1
    x337      __OBJ___  564
    x337      C30       -1
    x337      C301      -1
    x337      C357      -1
    x340      __OBJ___  166
    x340      C49       -1
    x340      C79       -1
    x340      C252      -1
    x341      __OBJ___  325
    x341      C155      -1
    x341      C186      -1
    x341      C250      -1
    x341      C331      -1
    x342      __OBJ___  95
    x342      C34       -1
    x342      C84       -1
    x342      C88       -1
    x343      __OBJ___  630
    x343      C77       -1
    x343      C134      -1
    x343      C151      -1
    x346      __OBJ___  628
    x346      C123      -1
    x346      C182      -1
    x346      C183      -1
    x348      __OBJ___  452
    x348      C53       -1
    x348      C175      -1
    x348      C200      -1
    x348      C248      -1
    x348      C360      -1
    x354      __OBJ___  928
    x354      C175      -1
    x354      C185      -1
    x354      C269      -1
    x354      C301      -1
    x354      C312      -1
    x355      __OBJ___  64
    x355      C262      -1
    x355      C293      -1
    x355      C344      -1
    x356      __OBJ___  748
    x356      C61       -1
    x356      C83       -1
    x356      C393      -1
    x360      __OBJ___  860
    x360      C34       -1
    x360      C39       -1
    x360      C138      -1
    x361      __OBJ___  725
    x361      C77       -1
    x361      C104      -1
    x361      C392      -1
    x362      __OBJ___  153
    x362      C52       -1
    x362      C96       -1
    x364      __OBJ___  869
    x364      C165      -1
    x364      C256      -1
    x364      C387      -1
    x364      C395      -1
    x366      __OBJ___  670
    x366      C86       -1
    x366      C99       -1
    x366      C385      -1
    x371      __OBJ___  855
    x371      C131      -1
    x371      C218      -1
    x371      C371      -1
    x373      __OBJ___  331
    x373      C63       -1
    x373      C254      -1
    x373      C349      -1
    x374      __OBJ___  148
    x374      C12       -1
    x374      C262      -1
    x374      C389      -1
    x375      __OBJ___  211
    x375      C16       -1
    x375      C34       -1
    x375      C119      -1
    x377      __OBJ___  119
    x377      C195      -1
    x377      C390      -1
    x378      __OBJ___  365
    x378      C104      -1
    x378      C289      -1
    x378      C292      -1
    x378      C310      -1
    x379      __OBJ___  530
    x379      C43       -1
    x379      C340      -1
    x383      __OBJ___  128
    x383      C131      -1
    x383      C180      -1
    x383      C186      -1
    x384      __OBJ___  310
    x384      C105      -1
    x384      C219      -1
    x384      C335      -1
    x384      C364      -1
    x384      C385      -1
    x386      __OBJ___  505
    x386      C10       -1
    x386      C289      -1
    x386      C297      -1
    x389      __OBJ___  828
    x389      C6        -1
    x389      C131      -1
    x389      C265      -1
    x390      __OBJ___  213
    x390      C143      -1
    x390      C313      -1
    x392      __OBJ___  90
    x392      C54       -1
    x392      C92       -1
    x392      C141      -1
    x393      __OBJ___  8
    x393      C146      -1
    x393      C170      -1
    x393      C286      -1
    x393      C340      -1
    x396      __OBJ___  60
    x396      C88       -1
    x396      C134      -1
    x398      __OBJ___  320
    x398      C20       -1
    x398      C81       -1
    x398      C86       -1
    x398      C162      -1
    MARKER    'MARKER'                 'INTEND'
RHS
    RHS       __OBJ___  -12981
    RHS       C2        -1
    RHS       C4        -1
    RHS       C6        -1
    RHS       C9        -1
    RHS       C10       -1
    RHS       C12       -1
    RHS       C14       -1
    RHS       C16       -1
    RHS       C17       -1
    RHS       C20       -1
    RHS       C25       -1
    RHS       C26       -1
    RHS       C27       -1
    RHS       C29       -1
    RHS       C30       -1
    RHS       C31       -1
    RHS       C32       -1
    RHS       C33       -1
    RHS       C34       -1
    RHS       C35       -1
    RHS       C36       -1
    RHS       C37       -1
    RHS       C39       -1
    RHS       C43       -1
    RHS       C44       -1
    RHS       C49       -1
    RHS       C51       -1
    RHS       C52       -1
    RHS       C53       -1
    RHS       C54       -1
    RHS       C55       -1
    RHS       C56       -1
    RHS       C57       -1
    RHS       C58       -1
    RHS       C59       -1
    RHS       C60       -1
    RHS       C61       -1
    RHS       C62       -1
    RHS       C63       -1
    RHS       C64       -1
    RHS       C65       -1
    RHS       C66       -1
    RHS       C72       -1
    RHS       C73       -1
    RHS       C74       -1
    RHS       C75       -1
    RHS       C77       -1
    RHS       C78       -1
    RHS       C79       -1
    RHS       C80       -1
    RHS       C81       -1
    RHS       C83       -1
    RHS       C84       -1
    RHS       C85       -1
    RHS       C86       -1
    RHS       C88       -1
    RHS       C92       -1
    RHS       C94       -1
    RHS       C95       -1
    RHS       C96       -1
    RHS       C97       -1
    RHS       C99       -1
    RHS       C103      -1
    RHS       C104      -1
    RHS       C105      -1
    RHS       C106      -1
    RHS       C108      -1
    RHS       C112      -1
    RHS       C113      -1
    RHS       C114      -1
    RHS       C115      -1
    RHS       C116      -1
    RHS       C118      -1
    RHS       C119      -1
    RHS       C123      -1
    RHS       C124      -1
    RHS       C128      -1
    RHS       C131      -1
    RHS       C134      -1
    RHS       C137      -1
    RHS       C138      -1
    RHS       C139      -1
    RHS       C140      -1
    RHS       C141      -1
    RHS       C143      -1
    RHS       C146      -1
    RHS       C148      -1
    RHS       C150      -1
    RHS       C151      -1
    RHS       C153      -1
    RHS       C155      -1
    RHS       C159      -1
    RHS       C160      -1
    RHS       C161      -1
    RHS       C162      -1
    RHS       C164      -1
    RHS       C165      -1
    RHS       C168      -1
    RHS       C169      -1
    RHS       C170      -1
    RHS       C171      -1
    RHS       C175      -1
    RHS       C176      -1
    RHS       C177      -1
    RHS       C178      -1
    RHS       C180      -1
    RHS       C181      -1
    RHS       C182      -1
    RHS       C183      -1
    RHS       C185      -1
    RHS       C186      -1
    RHS       C188      -1
    RHS       C191      -1
    RHS       C192      -1
    RHS       C193      -1
    RHS       C194      -1
    RHS       C195      -1
    RHS       C197      -1
    RHS       C199      -1
    RHS       C200      -1
    RHS       C202      -1
    RHS       C203      -1
    RHS       C204      -1
    RHS       C210      -1
    RHS       C213      -1
    RHS       C215      -1
    RHS       C217      -1
    RHS       C218      -1
    RHS       C219      -1
    RHS       C224      -1
    RHS       C227      -1
    RHS       C228      -1
    RHS       C229      -1
    RHS       C230      -1
    RHS       C233      -1
    RHS       C234      -1
    RHS       C236      -1
    RHS       C237      -1
    RHS       C238      -1
    RHS       C239      -1
    RHS       C240      -1
    RHS       C243      -1
    RHS       C248      -1
    RHS       C249      -1
    RHS       C250      -1
    RHS       C252      -1
    RHS       C254      -1
    RHS       C255      -1
    RHS       C256      -1
    RHS       C257      -1
    RHS       C259      -1
    RHS       C260      -1
    RHS       C262      -1
    RHS       C265      -1
    RHS       C266      -1
    RHS       C267      -1
    RHS       C269      -1
    RHS       C270      -1
    RHS       C271      -1
    RHS       C272      -1
    RHS       C273      -1
    RHS       C275      -1
    RHS       C277      -1
    RHS       C278      -1
    RHS       C280      -1
    RHS       C285      -1
    RHS       C286      -1
    RHS       C287      -1
    RHS       C288      -1
    RHS       C289      -1
    RHS       C291      -1
    RHS       C292      -1
    RHS       C293      -1
    RHS       C294      -1
    RHS       C295      -1
    RHS       C296      -1
    RHS       C297      -1
    RHS       C298      -1
    RHS       C299      -1
    RHS       C301      -1
    RHS       C309      -1
    RHS       C310      -1
    RHS       C311      -1
    RHS       C312      -1
    RHS       C313      -1
    RHS       C317      -1
    RHS       C318      -1
    RHS       C319      -1
    RHS       C320      -1
    RHS       C324      -1
    RHS       C325      -1
    RHS       C326      -1
    RHS       C331      -1
    RHS       C332      -1
    RHS       C333      -1
    RHS       C335      -1
    RHS       C337      -1
    RHS       C338      -1
    RHS       C339      -1
    RHS       C340      -1
    RHS       C341      -1
    RHS       C342      -1
    RHS       C343      -1
    RHS       C344      -1
    RHS       C349      -1
    RHS       C351      -1
    RHS       C354      -1
    RHS       C357      -1
    RHS       C358      -1
    RHS       C360      -1
    RHS       C363      -1
    RHS       C364      -1
    RHS       C365      -1
    RHS       C366      -1
    RHS       C369      -1
    RHS       C371      -1
    RHS       C372      -1
    RHS       C373      -1
    RHS       C375      -1
    RHS       C379      -1
    RHS       C380      -1
    RHS       C385      -1
    RHS       C387      -1
    RHS       C389      -1
    RHS       C390      -1
    RHS       C391      -1
    RHS       C392      -1
    RHS       C393      -1
    RHS       C395      -1
BOUNDS
 UP BOUND     x2        1
 UP BOUND     x3        1
 UP BOUND     x5        1
 UP BOUND     x7        1
 UP BOUND     x8        1
 UP BOUND     x9        1
 UP BOUND     x12       1
 UP BOUND     x15       1
 UP BOUND     x16       1
 UP BOUND     x17       1
 UP BOUND     x20       1
 UP BOUND     x22       1
 UP BOUND     x23       1
 UP BOUND     x24       1
 UP BOUND     x25       1
 UP BOUND     x26       1
 UP BOUND     x30       1
 UP BOUND     x32       1
 UP BOUND     x34       1
 UP BOUND     x35       1
 UP BOUND     x36       1
 UP BOUND     x38       1
 UP BOUND     x41       1
 UP BOUND     x45       1
 UP BOUND     x46       1
 UP BOUND     x48       1
 UP BOUND     x49       1
 UP BOUND     x52       1
 UP BOUND     x53       1
 UP BOUND     x55       1
 UP BOUND     x56       1
 UP BOUND     x57       1
 UP BOUND     x58       1
 UP BOUND     x59       1
 UP BOUND     x60       1
 UP BOUND     x62       1
 UP BOUND     x63       1
 UP BOUND     x64       1
 UP BOUND     x66       1
 UP BOUND     x69       1
 UP BOUND     x70       1
 UP BOUND     x77       1
 UP BOUND     x78       1
 UP BOUND     x81       1
 UP BOUND     x83       1
 UP BOUND     x85       1
 UP BOUND     x87       1
 UP BOUND     x88       1
 UP BOUND     x91       1
 UP BOUND     x93       1
 UP BOUND     x94       1
 UP BOUND     x95       1
 UP BOUND     x96       1
 UP BOUND     x98       1
 UP BOUND     x103      1
 UP BOUND     x104      1
 UP BOUND     x106      1
 UP BOUND     x107      1
 UP BOUND     x108      1
 UP BOUND     x110      1
 UP BOUND     x114      1
 UP BOUND     x116      1
 UP BOUND     x117      1
 UP BOUND     x119      1
 UP BOUND     x121      1
 UP BOUND     x122      1
 UP BOUND     x125      1
 UP BOUND     x126      1
 UP BOUND     x127      1
 UP BOUND     x132      1
 UP BOUND     x134      1
 UP BOUND     x135      1
 UP BOUND     x137      1
 UP BOUND     x138      1
 UP BOUND     x140      1
 UP BOUND     x142      1
 UP BOUND     x143      1
 UP BOUND     x144      1
 UP BOUND     x145      1
 UP BOUND     x146      1
 UP BOUND     x147      1
 UP BOUND     x148      1
 UP BOUND     x149      1
 UP BOUND     x151      1
 UP BOUND     x152      1
 UP BOUND     x154      1
 UP BOUND     x157      1
 UP BOUND     x160      1
 UP BOUND     x163      1
 UP BOUND     x165      1
 UP BOUND     x166      1
 UP BOUND     x167      1
 UP BOUND     x168      1
 UP BOUND     x172      1
 UP BOUND     x173      1
 UP BOUND     x175      1
 UP BOUND     x176      1
 UP BOUND     x177      1
 UP BOUND     x183      1
 UP BOUND     x184      1
 UP BOUND     x185      1
 UP BOUND     x187      1
 UP BOUND     x188      1
 UP BOUND     x190      1
 UP BOUND     x199      1
 UP BOUND     x200      1
 UP BOUND     x204      1
 UP BOUND     x206      1
 UP BOUND     x207      1
 UP BOUND     x208      1
 UP BOUND     x209      1
 UP BOUND     x220      1
 UP BOUND     x223      1
 UP BOUND     x224      1
 UP BOUND     x225      1
 UP BOUND     x227      1
 UP BOUND     x228      1
 UP BOUND     x232      1
 UP BOUND     x233      1
 UP BOUND     x237      1
 UP BOUND     x238      1
 UP BOUND     x239      1
 UP BOUND     x242      1
 UP BOUND     x245      1
 UP BOUND     x246      1
 UP BOUND     x247      1
 UP BOUND     x249      1
 UP BOUND     x250      1
 UP BOUND     x251      1
 UP BOUND     x256      1
 UP BOUND     x257      1
 UP BOUND     x258      1
 UP BOUND     x261      1
 UP BOUND     x262      1
 UP BOUND     x263      1
 UP BOUND     x265      1
 UP BOUND     x267      1
 UP BOUND     x270      1
 UP BOUND     x271      1
 UP BOUND     x273      1
 UP BOUND     x275      1
 UP BOUND     x278      1
 UP BOUND     x282      1
 UP BOUND     x283      1
 UP BOUND     x284      1
 UP BOUND     x286      1
 UP BOUND     x289      1
 UP BOUND     x291      1
 UP BOUND     x292      1
 UP BOUND     x293      1
 UP BOUND     x299      1
 UP BOUND     x301      1
 UP BOUND     x303      1
 UP BOUND     x304      1
 UP BOUND     x306      1
 UP BOUND     x308      1
 UP BOUND     x309      1
 UP BOUND     x310      1
 UP BOUND     x313      1
 UP BOUND     x318      1
 UP BOUND     x320      1
 UP BOUND     x321      1
 UP BOUND     x322      1
 UP BOUND     x323      1
 UP BOUND     x325      1
 UP BOUND     x326      1
 UP BOUND     x329      1
 UP BOUND     x330      1
 UP BOUND     x332      1
 UP BOUND     x334      1
 UP BOUND     x335      1
 UP BOUND     x336      1
 UP BOUND     x337      1
 UP BOUND     x340      1
 UP BOUND     x341      1
 UP BOUND     x342      1
 UP BOUND     x343      1
 UP BOUND     x346      1
 UP BOUND     x348      1
 UP BOUND     x354      1
 UP BOUND     x355      1
 UP BOUND     x356      1
 UP BOUND     x360      1
 UP BOUND     x361      1
 UP BOUND     x362      1
 UP BOUND     x364      1
 UP BOUND     x366      1
 UP BOUND     x371      1
 UP BOUND     x373      1
 UP BOUND     x374      1
 UP BOUND     x375      1
 UP BOUND     x377      1
 UP BOUND     x378      1
 UP BOUND     x379      1
 UP BOUND     x383      1
 UP BOUND     x384      1
 UP BOUND     x386      1
 UP BOUND     x389      1
 UP BOUND     x390      1
 UP BOUND     x392      1
 UP BOUND     x393      1
 UP BOUND     x396      1
 UP BOUND     x398      1
ENDATA
